set N :=  1 2 3 4 5 6 7 8 9 10 11 12 13 14 15 16 17 18 19 20 21 22 23 24 25 26 27 28 29 30 31 32 33 34 35 36 37 38 39 40 41 42 43 44 45 46 47 48 49 50 51 52 53 54 55 56 57 58 59 60 ;

set M :=  1 2 3 4 5 6 7 8 9 10 11 ;

set T :=  1 2 3 4 5 6 7 8 9 10 11 12 13 14 15 16 17 18 19 20 21 22 23 24 ;

param arrival := 
    1 13
    2 10
    3 12
    4 7
    5 11
    6 6
    7 7
    8 9
    9 10
    10 6
    11 12
    12 14
    13 8
    14 8
    15 9
    16 12
    17 11
    18 6
    19 15
    20 9
    21 9
    22 8
    23 11
    24 6
    25 9
    26 8
    27 11
    28 4
    29 6
    30 8
    31 7
    32 4
    33 11
    34 7
    35 7
    36 12
    37 11
    38 9
    39 9
    40 8
    41 10
    42 9
    43 6
    44 10
    45 15
    46 8
    47 8
    48 12
    49 13
    50 11
    51 11
    52 13
    53 7
    54 6
    55 8
    56 7
    57 7
    58 8
    59 9
    60 9
 ;

param depart := 
    1 19
    2 19
    3 18
    4 19
    5 17
    6 17
    7 18
    8 20
    9 19
    10 19
    11 18
    12 16
    13 21
    14 22
    15 20
    16 18
    17 18
    18 19
    19 23
    20 18
    21 17
    22 18
    23 20
    24 19
    25 18
    26 20
    27 20
    28 18
    29 20
    30 18
    31 21
    32 21
    33 21
    34 24
    35 19
    36 21
    37 18
    38 24
    39 19
    40 16
    41 21
    42 18
    43 20
    44 19
    45 21
    46 19
    47 22
    48 21
    49 19
    50 17
    51 20
    52 22
    53 20
    54 19
    55 21
    56 19
    57 18
    58 19
    59 18
    60 21
 ;

param demand := 
    1 24
    2 17
    3 16
    4 19
    5 12
    6 14
    7 21
    8 23
    9 21
    10 9
    11 20
    12 7
    13 16
    14 8
    15 9
    16 13
    17 23
    18 34
    19 24
    20 16
    21 14
    22 5
    23 6
    24 16
    25 20
    26 8
    27 10
    28 24
    29 23
    30 16
    31 16
    32 18
    33 9
    34 28
    35 16
    36 16
    37 6
    38 14
    39 16
    40 8
    41 16
    42 12
    43 17
    44 16
    45 16
    46 16
    47 7
    48 8
    49 24
    50 16
    51 20
    52 24
    53 9
    54 14
    55 16
    56 19
    57 30
    58 26
    59 19
    60 16
 ;

param installed_chargers := 
 1 4
 2 4
 3 8
 4 8
 5 8
 6 8
 7 8
 8 19
 9 19
 10 19
 11 19
 ;

param installed_cost := 
 1 1000
 2 1000
 3 1500
 4 1500
 5 1500
 6 1500
 7 1500
 8 2200
 9 2200
 10 2200
 11 2200
 ;

param POWER := 
    1 1 4
    2 1 4
    3 1 4
    4 1 4
    5 1 4
    6 1 4
    7 1 4
    8 1 4
    9 1 4
    10 1 4
    11 1 4
    12 1 4
    13 1 4
    14 1 4
    15 1 4
    16 1 4
    17 1 4
    18 1 4
    19 1 4
    20 1 4
    21 1 4
    22 1 4
    23 1 4
    24 1 4
    25 1 4
    26 1 4
    27 1 4
    28 1 4
    29 1 4
    30 1 4
    31 1 4
    32 1 4
    33 1 4
    34 1 4
    35 1 4
    36 1 4
    37 1 4
    38 1 4
    39 1 4
    40 1 4
    41 1 4
    42 1 4
    43 1 4
    44 1 4
    45 1 4
    46 1 4
    47 1 4
    48 1 4
    49 1 4
    50 1 4
    51 1 4
    52 1 4
    53 1 4
    54 1 4
    55 1 4
    56 1 4
    57 1 4
    58 1 4
    59 1 4
    60 1 4
    1 2 4
    2 2 4
    3 2 4
    4 2 4
    5 2 4
    6 2 4
    7 2 4
    8 2 4
    9 2 4
    10 2 4
    11 2 4
    12 2 4
    13 2 4
    14 2 4
    15 2 4
    16 2 4
    17 2 4
    18 2 4
    19 2 4
    20 2 4
    21 2 4
    22 2 4
    23 2 4
    24 2 4
    25 2 4
    26 2 4
    27 2 4
    28 2 4
    29 2 4
    30 2 4
    31 2 4
    32 2 4
    33 2 4
    34 2 4
    35 2 4
    36 2 4
    37 2 4
    38 2 4
    39 2 4
    40 2 4
    41 2 4
    42 2 4
    43 2 4
    44 2 4
    45 2 4
    46 2 4
    47 2 4
    48 2 4
    49 2 4
    50 2 4
    51 2 4
    52 2 4
    53 2 4
    54 2 4
    55 2 4
    56 2 4
    57 2 4
    58 2 4
    59 2 4
    60 2 4
    1 3 8
    2 3 8
    3 3 8
    4 3 8
    5 3 8
    6 3 8
    7 3 8
    8 3 8
    9 3 8
    10 3 8
    11 3 8
    12 3 8
    13 3 8
    14 3 8
    15 3 8
    16 3 8
    17 3 8
    18 3 8
    19 3 8
    20 3 8
    21 3 8
    22 3 8
    23 3 8
    24 3 8
    25 3 8
    26 3 8
    27 3 8
    28 3 8
    29 3 8
    30 3 8
    31 3 8
    32 3 8
    33 3 8
    34 3 8
    35 3 8
    36 3 8
    37 3 8
    38 3 8
    39 3 8
    40 3 8
    41 3 8
    42 3 8
    43 3 8
    44 3 8
    45 3 8
    46 3 8
    47 3 8
    48 3 8
    49 3 8
    50 3 8
    51 3 8
    52 3 8
    53 3 8
    54 3 8
    55 3 8
    56 3 8
    57 3 8
    58 3 8
    59 3 8
    60 3 8
    1 4 8
    2 4 8
    3 4 8
    4 4 8
    5 4 8
    6 4 8
    7 4 8
    8 4 8
    9 4 8
    10 4 8
    11 4 8
    12 4 8
    13 4 8
    14 4 8
    15 4 8
    16 4 8
    17 4 8
    18 4 8
    19 4 8
    20 4 8
    21 4 8
    22 4 8
    23 4 8
    24 4 8
    25 4 8
    26 4 8
    27 4 8
    28 4 8
    29 4 8
    30 4 8
    31 4 8
    32 4 8
    33 4 8
    34 4 8
    35 4 8
    36 4 8
    37 4 8
    38 4 8
    39 4 8
    40 4 8
    41 4 8
    42 4 8
    43 4 8
    44 4 8
    45 4 8
    46 4 8
    47 4 8
    48 4 8
    49 4 8
    50 4 8
    51 4 8
    52 4 8
    53 4 8
    54 4 8
    55 4 8
    56 4 8
    57 4 8
    58 4 8
    59 4 8
    60 4 8
    1 5 8
    2 5 8
    3 5 8
    4 5 8
    5 5 8
    6 5 8
    7 5 8
    8 5 8
    9 5 8
    10 5 8
    11 5 8
    12 5 8
    13 5 8
    14 5 8
    15 5 8
    16 5 8
    17 5 8
    18 5 8
    19 5 8
    20 5 8
    21 5 8
    22 5 8
    23 5 8
    24 5 8
    25 5 8
    26 5 8
    27 5 8
    28 5 8
    29 5 8
    30 5 8
    31 5 8
    32 5 8
    33 5 8
    34 5 8
    35 5 8
    36 5 8
    37 5 8
    38 5 8
    39 5 8
    40 5 8
    41 5 8
    42 5 8
    43 5 8
    44 5 8
    45 5 8
    46 5 8
    47 5 8
    48 5 8
    49 5 8
    50 5 8
    51 5 8
    52 5 8
    53 5 8
    54 5 8
    55 5 8
    56 5 8
    57 5 8
    58 5 8
    59 5 8
    60 5 8
    1 6 8
    2 6 8
    3 6 8
    4 6 8
    5 6 8
    6 6 8
    7 6 8
    8 6 8
    9 6 8
    10 6 8
    11 6 8
    12 6 8
    13 6 8
    14 6 8
    15 6 8
    16 6 8
    17 6 8
    18 6 8
    19 6 8
    20 6 8
    21 6 8
    22 6 8
    23 6 8
    24 6 8
    25 6 8
    26 6 8
    27 6 8
    28 6 8
    29 6 8
    30 6 8
    31 6 8
    32 6 8
    33 6 8
    34 6 8
    35 6 8
    36 6 8
    37 6 8
    38 6 8
    39 6 8
    40 6 8
    41 6 8
    42 6 8
    43 6 8
    44 6 8
    45 6 8
    46 6 8
    47 6 8
    48 6 8
    49 6 8
    50 6 8
    51 6 8
    52 6 8
    53 6 8
    54 6 8
    55 6 8
    56 6 8
    57 6 8
    58 6 8
    59 6 8
    60 6 8
    1 7 8
    2 7 8
    3 7 8
    4 7 8
    5 7 8
    6 7 8
    7 7 8
    8 7 8
    9 7 8
    10 7 8
    11 7 8
    12 7 8
    13 7 8
    14 7 8
    15 7 8
    16 7 8
    17 7 8
    18 7 8
    19 7 8
    20 7 8
    21 7 8
    22 7 8
    23 7 8
    24 7 8
    25 7 8
    26 7 8
    27 7 8
    28 7 8
    29 7 8
    30 7 8
    31 7 8
    32 7 8
    33 7 8
    34 7 8
    35 7 8
    36 7 8
    37 7 8
    38 7 8
    39 7 8
    40 7 8
    41 7 8
    42 7 8
    43 7 8
    44 7 8
    45 7 8
    46 7 8
    47 7 8
    48 7 8
    49 7 8
    50 7 8
    51 7 8
    52 7 8
    53 7 8
    54 7 8
    55 7 8
    56 7 8
    57 7 8
    58 7 8
    59 7 8
    60 7 8
    1 8 19
    2 8 19
    3 8 8
    4 8 19
    5 8 8
    6 8 19
    7 8 19
    8 8 19
    9 8 19
    10 8 8
    11 8 19
    12 8 19
    13 8 8
    14 8 8
    15 8 8
    16 8 19
    17 8 19
    18 8 19
    19 8 19
    20 8 8
    21 8 19
    22 8 19
    23 8 8
    24 8 8
    25 8 19
    26 8 19
    27 8 8
    28 8 19
    29 8 19
    30 8 8
    31 8 19
    32 8 19
    33 8 8
    34 8 19
    35 8 8
    36 8 8
    37 8 19
    38 8 8
    39 8 19
    40 8 19
    41 8 8
    42 8 8
    43 8 19
    44 8 8
    45 8 19
    46 8 8
    47 8 19
    48 8 19
    49 8 19
    50 8 19
    51 8 19
    52 8 19
    53 8 19
    54 8 19
    55 8 8
    56 8 19
    57 8 19
    58 8 19
    59 8 19
    60 8 19
    1 9 19
    2 9 19
    3 9 8
    4 9 19
    5 9 8
    6 9 19
    7 9 19
    8 9 19
    9 9 19
    10 9 8
    11 9 19
    12 9 19
    13 9 8
    14 9 8
    15 9 8
    16 9 19
    17 9 19
    18 9 19
    19 9 19
    20 9 8
    21 9 19
    22 9 19
    23 9 8
    24 9 8
    25 9 19
    26 9 19
    27 9 8
    28 9 19
    29 9 19
    30 9 8
    31 9 19
    32 9 19
    33 9 8
    34 9 19
    35 9 8
    36 9 8
    37 9 19
    38 9 8
    39 9 19
    40 9 19
    41 9 8
    42 9 8
    43 9 19
    44 9 8
    45 9 19
    46 9 8
    47 9 19
    48 9 19
    49 9 19
    50 9 19
    51 9 19
    52 9 19
    53 9 19
    54 9 19
    55 9 8
    56 9 19
    57 9 19
    58 9 19
    59 9 19
    60 9 19
    1 10 19
    2 10 19
    3 10 8
    4 10 19
    5 10 8
    6 10 19
    7 10 19
    8 10 19
    9 10 19
    10 10 8
    11 10 19
    12 10 19
    13 10 8
    14 10 8
    15 10 8
    16 10 19
    17 10 19
    18 10 19
    19 10 19
    20 10 8
    21 10 19
    22 10 19
    23 10 8
    24 10 8
    25 10 19
    26 10 19
    27 10 8
    28 10 19
    29 10 19
    30 10 8
    31 10 19
    32 10 19
    33 10 8
    34 10 19
    35 10 8
    36 10 8
    37 10 19
    38 10 8
    39 10 19
    40 10 19
    41 10 8
    42 10 8
    43 10 19
    44 10 8
    45 10 19
    46 10 8
    47 10 19
    48 10 19
    49 10 19
    50 10 19
    51 10 19
    52 10 19
    53 10 19
    54 10 19
    55 10 8
    56 10 19
    57 10 19
    58 10 19
    59 10 19
    60 10 19
    1 11 19
    2 11 19
    3 11 8
    4 11 19
    5 11 8
    6 11 19
    7 11 19
    8 11 19
    9 11 19
    10 11 8
    11 11 19
    12 11 19
    13 11 8
    14 11 8
    15 11 8
    16 11 19
    17 11 19
    18 11 19
    19 11 19
    20 11 8
    21 11 19
    22 11 19
    23 11 8
    24 11 8
    25 11 19
    26 11 19
    27 11 8
    28 11 19
    29 11 19
    30 11 8
    31 11 19
    32 11 19
    33 11 8
    34 11 19
    35 11 8
    36 11 8
    37 11 19
    38 11 8
    39 11 19
    40 11 19
    41 11 8
    42 11 8
    43 11 19
    44 11 8
    45 11 19
    46 11 8
    47 11 19
    48 11 19
    49 11 19
    50 11 19
    51 11 19
    52 11 19
    53 11 19
    54 11 19
    55 11 8
    56 11 19
    57 11 19
    58 11 19
    59 11 19
    60 11 19
 ;

